c 
c MolecularSimulation 0.9.3
c Simulation written: Jan 13 2012 -- 15:17:57
c Test: Distribution
c Input: ./data/testCNF/SWEEP_R2_K3_N20_M24_S000.cnf
c 
s SATISFIABLE
v 1 2 3 4 6 7 -8 10 -11 12 -13 14 15 -16 -17 18 20 0
c algorithmTime:  154
c solutionMemory: 354488
c mixCount:       69
c extractCount:   0
c appendCount:    3215707
c splitCount:     69
c spliceCount:    1464453
c purifyCount:    23
c 
